21 15
15 35
4 46
38 36
35 45
49 35
7 23
27 10
20 25
30 39
5 43
7 38
43 34
2 39
49 13
38 8
40 49
1 33
2 18
23 24
49 43
22 1
49 37
47 17
14 44
32 9
44 8
6 2
10 47
42 19
25 6
5 18
20 30
15 39
5 35
43 33
24 14
47 16
34 38
18 30
16 2
49 11
26 38
49 10
28 6
47 25
14 35
24 8
24 21
4 20
